c colouring generated by benchmark framework
p edge 225 5180
v 1 6
v 2 14
v 3 3
v 4 18
v 5 12
v 6 13
v 7 11
v 8 16
v 9 17
v 10 10
v 11 5
v 12 15
v 13 1
v 14 19
v 15 9
v 16 10
v 17 4
v 18 1
v 19 5
v 20 7
v 21 0
v 22 15
v 23 6
v 24 12
v 25 14
v 26 3
v 27 13
v 28 17
v 29 2
v 30 16
v 31 7
v 32 0
v 33 16
v 34 2
v 35 15
v 36 11
v 37 13
v 38 5
v 39 8
v 40 1
v 41 9
v 42 14
v 43 12
v 44 10
v 45 6
v 46 8
v 47 15
v 48 12
v 49 14
v 50 10
v 51 7
v 52 4
v 53 11
v 54 9
v 55 5
v 56 13
v 57 3
v 58 6
v 59 0
v 60 2
v 61 18
v 62 19
v 63 9
v 64 13
v 65 1
v 66 6
v 67 12
v 68 0
v 69 3
v 70 8
v 71 14
v 72 11
v 73 16
v 74 15
v 75 7
v 76 5
v 77 13
v 78 14
v 79 0
v 80 8
v 81 3
v 82 17
v 83 2
v 84 16
v 85 6
v 86 7
v 87 4
v 88 10
v 89 18
v 90 1
v 91 12
v 92 3
v 93 11
v 94 9
v 95 2
v 96 19
v 97 0
v 98 7
v 99 4
v 100 15
v 101 1
v 102 18
v 103 13
v 104 8
v 105 5
v 106 1
v 107 18
v 108 17
v 109 7
v 110 5
v 111 14
v 112 2
v 113 8
v 114 0
v 115 9
v 116 6
v 117 10
v 118 3
v 119 12
v 120 4
v 121 19
v 122 2
v 123 10
v 124 8
v 125 4
v 126 18
v 127 16
v 128 1
v 129 11
v 130 3
v 131 17
v 132 5
v 133 9
v 134 6
v 135 0
v 136 15
v 137 9
v 138 7
v 139 11
v 140 6
v 141 1
v 142 3
v 143 10
v 144 5
v 145 12
v 146 4
v 147 0
v 148 2
v 149 14
v 150 17
v 151 13
v 152 10
v 153 6
v 154 3
v 155 0
v 156 2
v 157 5
v 158 4
v 159 1
v 160 7
v 161 18
v 162 8
v 163 11
v 164 9
v 165 15
v 166 11
v 167 12
v 168 0
v 169 10
v 170 9
v 171 8
v 172 7
v 173 3
v 174 6
v 175 4
v 176 16
v 177 2
v 178 15
v 179 1
v 180 14
v 181 16
v 182 1
v 183 5
v 184 4
v 185 3
v 186 17
v 187 9
v 188 12
v 189 2
v 190 0
v 191 8
v 192 6
v 193 7
v 194 11
v 195 13
v 196 9
v 197 7
v 198 8
v 199 15
v 200 16
v 201 4
v 202 10
v 203 13
v 204 14
v 205 17
v 206 2
v 207 12
v 208 18
v 209 5
v 210 19
v 211 17
v 212 5
v 213 2
v 214 12
v 215 14
v 216 9
v 217 8
v 218 15
v 219 7
v 220 11
v 221 0
v 222 1
v 223 19
v 224 4
v 225 10
